Test: chnl10_11.cnf
Options: -print-activity -no-inverting-opt -activity-look-freq=1
WARNING: for repeatability, setting FPU to use double precision
============================[ Problem Statistics ]=============================
|                                                                             |
|  Number of symmetries:           39                                         |
|  Number of invertingSyms:         0                                         |
|  Number of variables:           220                                         |
|  Number of clauses:            1122                                         |
|  Parse time:                   0.00 s                                       |
|                                                                             |
============================[ Search Statistics ]==============================
| Conflicts |          ORIGINAL         |          LEARNT          | Progress |
|           |    Vars  Clauses Literals |    Limit  Clauses Lit/Cl |          |
===============================================================================
ActiveSyms: 39
ActiveSyms: 36
ActiveSyms: 36
ActiveSyms: 36
ActiveSyms: 36
ActiveSyms: 36
ActiveSyms: 34
ActiveSyms: 34
ActiveSyms: 34
ActiveSyms: 34
ActiveSyms: 34
ActiveSyms: 34
ActiveSyms: 34
ActiveSyms: 34
ActiveSyms: 34
ActiveSyms: 32
ActiveSyms: 32
ActiveSyms: 32
ActiveSyms: 32
ActiveSyms: 32
ActiveSyms: 32
ActiveSyms: 32
ActiveSyms: 32
ActiveSyms: 30
ActiveSyms: 30
ActiveSyms: 30
ActiveSyms: 30
ActiveSyms: 30
ActiveSyms: 30
ActiveSyms: 30
ActiveSyms: 28
ActiveSyms: 28
ActiveSyms: 28
ActiveSyms: 28
ActiveSyms: 28
ActiveSyms: 28
ActiveSyms: 26
ActiveSyms: 26
ActiveSyms: 26
ActiveSyms: 26
ActiveSyms: 26
ActiveSyms: 24
ActiveSyms: 24
ActiveSyms: 22
ActiveSyms: 24
ActiveSyms: 22
ActiveSyms: 24
ActiveSyms: 22
ActiveSyms: 20
ActiveSyms: 20
ActiveSyms: 17
ActiveSyms: 20
ActiveSyms: 22
ActiveSyms: 24
ActiveSyms: 22
ActiveSyms: 21
ActiveSyms: 20
ActiveSyms: 20
ActiveSyms: 20
ActiveSyms: 24
ActiveSyms: 22
ActiveSyms: 20
ActiveSyms: 20
ActiveSyms: 19
ActiveSyms: 18
ActiveSyms: 19
ActiveSyms: 18
ActiveSyms: 21
ActiveSyms: 18
ActiveSyms: 17
ActiveSyms: 20
ActiveSyms: 18
ActiveSyms: 19
ActiveSyms: 24
ActiveSyms: 24
ActiveSyms: 26
ActiveSyms: 28
ActiveSyms: 30
ActiveSyms: 32
ActiveSyms: 34
ActiveSyms: 39
===============================================================================
restarts              : 1
conflicts             : 19             (4750 /sec)
symconflicts          : 8              (2000 /sec)
decisions             : 62             (0.00 % random) (15500 /sec)
propagations          : 894            (223500 /sec)
sympropagations       : 72             (18000 /sec)
conflict literals     : 476            (0.83 % deleted)
literals     : 476            (0.83 % deleted)

HEURISTIC USAGES
random                : 0           
activity w/ lookahead : 62          
activity no lookahead : 0           
original sp           : 0           
sym count             : 0           

Memory used           : 5.00 MB
CPU time              : 0.004 s

UNSATISFIABLE
